c SAT Generator for power-law distributed variable frequencies
c -g u -v 20 -c 91 -k 3 -p 2.750000 -b 3.200000 -f /home/schmidt/Devel/ni-kop-sat/data/ensemble/ruf20-91/ruf20-91-174 -u 1 -U 1 -s 831137979
p cnf 20 91
9 -11 19 0
2 -4 17 0
6 7 -14 0
-8 10 -11 0
9 -10 -14 0
-8 -10 17 0
2 -4 -19 0
-2 -4 -5 0
4 10 16 0
-5 10 -17 0
4 -7 11 0
8 15 -19 0
3 4 -11 0
5 17 18 0
-12 -13 -19 0
3 -17 -20 0
-3 8 16 0
-1 -8 -10 0
8 -13 -15 0
-1 5 20 0
-10 13 19 0
-3 4 -8 0
-6 7 -9 0
2 11 -13 0
9 -14 -16 0
-5 10 20 0
-4 8 -16 0
-3 -8 10 0
-8 -15 17 0
-13 15 -20 0
4 8 -17 0
5 7 9 0
7 13 -19 0
2 -12 19 0
-11 12 -17 0
6 12 15 0
5 -11 -14 0
1 3 18 0
-2 -17 18 0
-4 -6 13 0
1 -15 20 0
1 10 18 0
-8 -15 16 0
-4 13 17 0
-6 -8 9 0
-2 5 -17 0
9 15 17 0
-1 11 -14 0
9 -12 -14 0
3 5 10 0
1 -12 -20 0
10 -13 16 0
-11 15 17 0
-1 6 -12 0
-4 9 -18 0
-4 -11 13 0
-8 16 -17 0
-4 -9 20 0
1 -17 18 0
3 14 -15 0
-4 -12 -18 0
6 -8 12 0
1 8 -20 0
-2 -9 -11 0
2 -4 -18 0
-10 12 16 0
-1 7 -19 0
6 -14 20 0
1 5 6 0
-7 12 16 0
-2 -13 20 0
8 11 18 0
3 -6 -9 0
5 -8 -11 0
7 -12 14 0
-1 -5 9 0
-8 14 -15 0
-5 -16 -18 0
-6 -8 -20 0
1 -2 20 0
-2 10 -20 0
-3 9 -20 0
-5 -7 -9 0
-6 -11 -18 0
2 -12 -15 0
1 -8 -13 0
6 -12 -18 0
-8 13 -16 0
-10 11 15 0
1 2 -16 0
-8 15 -19 0
